15 40
25
2 11 13 0
3 2 1 4
7 10 4 19
4 8 0 32
5 9 4 5
2 7 9 2
1 4 1 0
1 6 0 0
5 4 2 0
3 8 4 29
3 1 4 4
5 5 4 14
1 3 4 37
4 12 0 14
2 6 0 26
4 2 7 0
4 11 7 29
2 10 9 9
2 3 7 2
2 11 11 0
4 3 11 11
4 26 11 14
4 8 0 6
2 3 5 37
2 6 2 26
